c Standarized MaxSat Instance
c{
c "sha1sum": "4fe4107bee5e4a7b257109a17f5a70875681a6d6",
c "nvars": 296,
c "ncls": 1287,
c "total_lits": 3518,
c "nhards": 1242,
c "nhard_nlits": 3473,
c "nhard_len_stats":
c    { "min": 1,
c      "max": 3,
c      "ave": 2.7963,
c      "stddev": 0.4047 },
c "nsofts": 45,
c "nsoft_nlits": 45,
c "nsoft_len_stats":
c    { "min": 1,
c      "max": 1,
c      "ave": 1.0000,
c      "stddev": 0.0000 },
c "nsoft_wts": 1,
c "soft_wt_stats":
c    { "min": 1,
c      "max": 1,
c      "ave": 1.0000,
c      "stddev": 0.0000 }
c}
c------------------------------------------------------------
c This instance encodes a supposedly trivial MaxSAT formula.
c The hard part of the formula encodes a cardinality constraint:
c     x1 + ... + x45 <= 16
c Cardinality encoding used is 'tot'.
c The soft part prefers all the variables to be set to true:
c     x1 = 1, ..., x45 = 1
c As a result, the optimum cost for this formula is 29.
c
1 1 0
1 2 0
1 3 0
1 4 0
1 5 0
1 6 0
1 7 0
1 8 0
1 9 0
1 10 0
1 11 0
1 12 0
1 13 0
1 14 0
1 15 0
1 16 0
1 17 0
1 18 0
1 19 0
1 20 0
1 21 0
1 22 0
1 23 0
1 24 0
1 25 0
1 26 0
1 27 0
1 28 0
1 29 0
1 30 0
1 31 0
1 32 0
1 33 0
1 34 0
1 35 0
1 36 0
1 37 0
1 38 0
1 39 0
1 40 0
1 41 0
1 42 0
1 43 0
1 44 0
1 45 0
h -114 46 0
h -115 47 0
h -116 48 0
h -117 49 0
h -118 50 0
h -119 51 0
h -120 52 0
h -121 53 0
h -122 54 0
h -123 55 0
h -124 56 0
h -125 57 0
h -126 58 0
h -127 59 0
h -128 60 0
h -129 61 0
h -130 62 0
h -131 63 0
h -132 64 0
h -133 65 0
h -134 66 0
h -135 67 0
h -91 46 0
h -92 47 0
h -93 48 0
h -94 49 0
h -95 50 0
h -96 51 0
h -97 52 0
h -98 53 0
h -99 54 0
h -100 55 0
h -101 56 0
h -102 57 0
h -103 58 0
h -104 59 0
h -105 60 0
h -106 61 0
h -107 62 0
h -108 63 0
h -109 64 0
h -110 65 0
h -111 66 0
h -112 67 0
h -113 68 0
h -91 -114 47 0
h -91 -115 48 0
h -91 -116 49 0
h -91 -117 50 0
h -91 -118 51 0
h -91 -119 52 0
h -91 -120 53 0
h -91 -121 54 0
h -91 -122 55 0
h -91 -123 56 0
h -91 -124 57 0
h -91 -125 58 0
h -91 -126 59 0
h -91 -127 60 0
h -91 -128 61 0
h -91 -129 62 0
h -91 -130 63 0
h -91 -131 64 0
h -91 -132 65 0
h -91 -133 66 0
h -91 -134 67 0
h -91 -135 68 0
h -92 -114 48 0
h -92 -115 49 0
h -92 -116 50 0
h -92 -117 51 0
h -92 -118 52 0
h -92 -119 53 0
h -92 -120 54 0
h -92 -121 55 0
h -92 -122 56 0
h -92 -123 57 0
h -92 -124 58 0
h -92 -125 59 0
h -92 -126 60 0
h -92 -127 61 0
h -92 -128 62 0
h -92 -129 63 0
h -92 -130 64 0
h -92 -131 65 0
h -92 -132 66 0
h -92 -133 67 0
h -92 -134 68 0
h -92 -135 69 0
h -93 -114 49 0
h -93 -115 50 0
h -93 -116 51 0
h -93 -117 52 0
h -93 -118 53 0
h -93 -119 54 0
h -93 -120 55 0
h -93 -121 56 0
h -93 -122 57 0
h -93 -123 58 0
h -93 -124 59 0
h -93 -125 60 0
h -93 -126 61 0
h -93 -127 62 0
h -93 -128 63 0
h -93 -129 64 0
h -93 -130 65 0
h -93 -131 66 0
h -93 -132 67 0
h -93 -133 68 0
h -93 -134 69 0
h -93 -135 70 0
h -94 -114 50 0
h -94 -115 51 0
h -94 -116 52 0
h -94 -117 53 0
h -94 -118 54 0
h -94 -119 55 0
h -94 -120 56 0
h -94 -121 57 0
h -94 -122 58 0
h -94 -123 59 0
h -94 -124 60 0
h -94 -125 61 0
h -94 -126 62 0
h -94 -127 63 0
h -94 -128 64 0
h -94 -129 65 0
h -94 -130 66 0
h -94 -131 67 0
h -94 -132 68 0
h -94 -133 69 0
h -94 -134 70 0
h -94 -135 71 0
h -95 -114 51 0
h -95 -115 52 0
h -95 -116 53 0
h -95 -117 54 0
h -95 -118 55 0
h -95 -119 56 0
h -95 -120 57 0
h -95 -121 58 0
h -95 -122 59 0
h -95 -123 60 0
h -95 -124 61 0
h -95 -125 62 0
h -95 -126 63 0
h -95 -127 64 0
h -95 -128 65 0
h -95 -129 66 0
h -95 -130 67 0
h -95 -131 68 0
h -95 -132 69 0
h -95 -133 70 0
h -95 -134 71 0
h -95 -135 72 0
h -96 -114 52 0
h -96 -115 53 0
h -96 -116 54 0
h -96 -117 55 0
h -96 -118 56 0
h -96 -119 57 0
h -96 -120 58 0
h -96 -121 59 0
h -96 -122 60 0
h -96 -123 61 0
h -96 -124 62 0
h -96 -125 63 0
h -96 -126 64 0
h -96 -127 65 0
h -96 -128 66 0
h -96 -129 67 0
h -96 -130 68 0
h -96 -131 69 0
h -96 -132 70 0
h -96 -133 71 0
h -96 -134 72 0
h -96 -135 73 0
h -97 -114 53 0
h -97 -115 54 0
h -97 -116 55 0
h -97 -117 56 0
h -97 -118 57 0
h -97 -119 58 0
h -97 -120 59 0
h -97 -121 60 0
h -97 -122 61 0
h -97 -123 62 0
h -97 -124 63 0
h -97 -125 64 0
h -97 -126 65 0
h -97 -127 66 0
h -97 -128 67 0
h -97 -129 68 0
h -97 -130 69 0
h -97 -131 70 0
h -97 -132 71 0
h -97 -133 72 0
h -97 -134 73 0
h -97 -135 74 0
h -98 -114 54 0
h -98 -115 55 0
h -98 -116 56 0
h -98 -117 57 0
h -98 -118 58 0
h -98 -119 59 0
h -98 -120 60 0
h -98 -121 61 0
h -98 -122 62 0
h -98 -123 63 0
h -98 -124 64 0
h -98 -125 65 0
h -98 -126 66 0
h -98 -127 67 0
h -98 -128 68 0
h -98 -129 69 0
h -98 -130 70 0
h -98 -131 71 0
h -98 -132 72 0
h -98 -133 73 0
h -98 -134 74 0
h -98 -135 75 0
h -99 -114 55 0
h -99 -115 56 0
h -99 -116 57 0
h -99 -117 58 0
h -99 -118 59 0
h -99 -119 60 0
h -99 -120 61 0
h -99 -121 62 0
h -99 -122 63 0
h -99 -123 64 0
h -99 -124 65 0
h -99 -125 66 0
h -99 -126 67 0
h -99 -127 68 0
h -99 -128 69 0
h -99 -129 70 0
h -99 -130 71 0
h -99 -131 72 0
h -99 -132 73 0
h -99 -133 74 0
h -99 -134 75 0
h -99 -135 76 0
h -100 -114 56 0
h -100 -115 57 0
h -100 -116 58 0
h -100 -117 59 0
h -100 -118 60 0
h -100 -119 61 0
h -100 -120 62 0
h -100 -121 63 0
h -100 -122 64 0
h -100 -123 65 0
h -100 -124 66 0
h -100 -125 67 0
h -100 -126 68 0
h -100 -127 69 0
h -100 -128 70 0
h -100 -129 71 0
h -100 -130 72 0
h -100 -131 73 0
h -100 -132 74 0
h -100 -133 75 0
h -100 -134 76 0
h -100 -135 77 0
h -101 -114 57 0
h -101 -115 58 0
h -101 -116 59 0
h -101 -117 60 0
h -101 -118 61 0
h -101 -119 62 0
h -101 -120 63 0
h -101 -121 64 0
h -101 -122 65 0
h -101 -123 66 0
h -101 -124 67 0
h -101 -125 68 0
h -101 -126 69 0
h -101 -127 70 0
h -101 -128 71 0
h -101 -129 72 0
h -101 -130 73 0
h -101 -131 74 0
h -101 -132 75 0
h -101 -133 76 0
h -101 -134 77 0
h -101 -135 78 0
h -102 -114 58 0
h -102 -115 59 0
h -102 -116 60 0
h -102 -117 61 0
h -102 -118 62 0
h -102 -119 63 0
h -102 -120 64 0
h -102 -121 65 0
h -102 -122 66 0
h -102 -123 67 0
h -102 -124 68 0
h -102 -125 69 0
h -102 -126 70 0
h -102 -127 71 0
h -102 -128 72 0
h -102 -129 73 0
h -102 -130 74 0
h -102 -131 75 0
h -102 -132 76 0
h -102 -133 77 0
h -102 -134 78 0
h -102 -135 79 0
h -103 -114 59 0
h -103 -115 60 0
h -103 -116 61 0
h -103 -117 62 0
h -103 -118 63 0
h -103 -119 64 0
h -103 -120 65 0
h -103 -121 66 0
h -103 -122 67 0
h -103 -123 68 0
h -103 -124 69 0
h -103 -125 70 0
h -103 -126 71 0
h -103 -127 72 0
h -103 -128 73 0
h -103 -129 74 0
h -103 -130 75 0
h -103 -131 76 0
h -103 -132 77 0
h -103 -133 78 0
h -103 -134 79 0
h -103 -135 80 0
h -104 -114 60 0
h -104 -115 61 0
h -104 -116 62 0
h -104 -117 63 0
h -104 -118 64 0
h -104 -119 65 0
h -104 -120 66 0
h -104 -121 67 0
h -104 -122 68 0
h -104 -123 69 0
h -104 -124 70 0
h -104 -125 71 0
h -104 -126 72 0
h -104 -127 73 0
h -104 -128 74 0
h -104 -129 75 0
h -104 -130 76 0
h -104 -131 77 0
h -104 -132 78 0
h -104 -133 79 0
h -104 -134 80 0
h -104 -135 81 0
h -105 -114 61 0
h -105 -115 62 0
h -105 -116 63 0
h -105 -117 64 0
h -105 -118 65 0
h -105 -119 66 0
h -105 -120 67 0
h -105 -121 68 0
h -105 -122 69 0
h -105 -123 70 0
h -105 -124 71 0
h -105 -125 72 0
h -105 -126 73 0
h -105 -127 74 0
h -105 -128 75 0
h -105 -129 76 0
h -105 -130 77 0
h -105 -131 78 0
h -105 -132 79 0
h -105 -133 80 0
h -105 -134 81 0
h -105 -135 82 0
h -106 -114 62 0
h -106 -115 63 0
h -106 -116 64 0
h -106 -117 65 0
h -106 -118 66 0
h -106 -119 67 0
h -106 -120 68 0
h -106 -121 69 0
h -106 -122 70 0
h -106 -123 71 0
h -106 -124 72 0
h -106 -125 73 0
h -106 -126 74 0
h -106 -127 75 0
h -106 -128 76 0
h -106 -129 77 0
h -106 -130 78 0
h -106 -131 79 0
h -106 -132 80 0
h -106 -133 81 0
h -106 -134 82 0
h -106 -135 83 0
h -107 -114 63 0
h -107 -115 64 0
h -107 -116 65 0
h -107 -117 66 0
h -107 -118 67 0
h -107 -119 68 0
h -107 -120 69 0
h -107 -121 70 0
h -107 -122 71 0
h -107 -123 72 0
h -107 -124 73 0
h -107 -125 74 0
h -107 -126 75 0
h -107 -127 76 0
h -107 -128 77 0
h -107 -129 78 0
h -107 -130 79 0
h -107 -131 80 0
h -107 -132 81 0
h -107 -133 82 0
h -107 -134 83 0
h -107 -135 84 0
h -108 -114 64 0
h -108 -115 65 0
h -108 -116 66 0
h -108 -117 67 0
h -108 -118 68 0
h -108 -119 69 0
h -108 -120 70 0
h -108 -121 71 0
h -108 -122 72 0
h -108 -123 73 0
h -108 -124 74 0
h -108 -125 75 0
h -108 -126 76 0
h -108 -127 77 0
h -108 -128 78 0
h -108 -129 79 0
h -108 -130 80 0
h -108 -131 81 0
h -108 -132 82 0
h -108 -133 83 0
h -108 -134 84 0
h -108 -135 85 0
h -109 -114 65 0
h -109 -115 66 0
h -109 -116 67 0
h -109 -117 68 0
h -109 -118 69 0
h -109 -119 70 0
h -109 -120 71 0
h -109 -121 72 0
h -109 -122 73 0
h -109 -123 74 0
h -109 -124 75 0
h -109 -125 76 0
h -109 -126 77 0
h -109 -127 78 0
h -109 -128 79 0
h -109 -129 80 0
h -109 -130 81 0
h -109 -131 82 0
h -109 -132 83 0
h -109 -133 84 0
h -109 -134 85 0
h -109 -135 86 0
h -110 -114 66 0
h -110 -115 67 0
h -110 -116 68 0
h -110 -117 69 0
h -110 -118 70 0
h -110 -119 71 0
h -110 -120 72 0
h -110 -121 73 0
h -110 -122 74 0
h -110 -123 75 0
h -110 -124 76 0
h -110 -125 77 0
h -110 -126 78 0
h -110 -127 79 0
h -110 -128 80 0
h -110 -129 81 0
h -110 -130 82 0
h -110 -131 83 0
h -110 -132 84 0
h -110 -133 85 0
h -110 -134 86 0
h -110 -135 87 0
h -111 -114 67 0
h -111 -115 68 0
h -111 -116 69 0
h -111 -117 70 0
h -111 -118 71 0
h -111 -119 72 0
h -111 -120 73 0
h -111 -121 74 0
h -111 -122 75 0
h -111 -123 76 0
h -111 -124 77 0
h -111 -125 78 0
h -111 -126 79 0
h -111 -127 80 0
h -111 -128 81 0
h -111 -129 82 0
h -111 -130 83 0
h -111 -131 84 0
h -111 -132 85 0
h -111 -133 86 0
h -111 -134 87 0
h -111 -135 88 0
h -112 -114 68 0
h -112 -115 69 0
h -112 -116 70 0
h -112 -117 71 0
h -112 -118 72 0
h -112 -119 73 0
h -112 -120 74 0
h -112 -121 75 0
h -112 -122 76 0
h -112 -123 77 0
h -112 -124 78 0
h -112 -125 79 0
h -112 -126 80 0
h -112 -127 81 0
h -112 -128 82 0
h -112 -129 83 0
h -112 -130 84 0
h -112 -131 85 0
h -112 -132 86 0
h -112 -133 87 0
h -112 -134 88 0
h -112 -135 89 0
h -113 -114 69 0
h -113 -115 70 0
h -113 -116 71 0
h -113 -117 72 0
h -113 -118 73 0
h -113 -119 74 0
h -113 -120 75 0
h -113 -121 76 0
h -113 -122 77 0
h -113 -123 78 0
h -113 -124 79 0
h -113 -125 80 0
h -113 -126 81 0
h -113 -127 82 0
h -113 -128 83 0
h -113 -129 84 0
h -113 -130 85 0
h -113 -131 86 0
h -113 -132 87 0
h -113 -133 88 0
h -113 -134 89 0
h -113 -135 90 0
h -147 114 0
h -148 115 0
h -149 116 0
h -150 117 0
h -151 118 0
h -152 119 0
h -153 120 0
h -154 121 0
h -155 122 0
h -156 123 0
h -157 124 0
h -136 114 0
h -137 115 0
h -138 116 0
h -139 117 0
h -140 118 0
h -141 119 0
h -142 120 0
h -143 121 0
h -144 122 0
h -145 123 0
h -146 124 0
h -136 -147 115 0
h -136 -148 116 0
h -136 -149 117 0
h -136 -150 118 0
h -136 -151 119 0
h -136 -152 120 0
h -136 -153 121 0
h -136 -154 122 0
h -136 -155 123 0
h -136 -156 124 0
h -136 -157 125 0
h -137 -147 116 0
h -137 -148 117 0
h -137 -149 118 0
h -137 -150 119 0
h -137 -151 120 0
h -137 -152 121 0
h -137 -153 122 0
h -137 -154 123 0
h -137 -155 124 0
h -137 -156 125 0
h -137 -157 126 0
h -138 -147 117 0
h -138 -148 118 0
h -138 -149 119 0
h -138 -150 120 0
h -138 -151 121 0
h -138 -152 122 0
h -138 -153 123 0
h -138 -154 124 0
h -138 -155 125 0
h -138 -156 126 0
h -138 -157 127 0
h -139 -147 118 0
h -139 -148 119 0
h -139 -149 120 0
h -139 -150 121 0
h -139 -151 122 0
h -139 -152 123 0
h -139 -153 124 0
h -139 -154 125 0
h -139 -155 126 0
h -139 -156 127 0
h -139 -157 128 0
h -140 -147 119 0
h -140 -148 120 0
h -140 -149 121 0
h -140 -150 122 0
h -140 -151 123 0
h -140 -152 124 0
h -140 -153 125 0
h -140 -154 126 0
h -140 -155 127 0
h -140 -156 128 0
h -140 -157 129 0
h -141 -147 120 0
h -141 -148 121 0
h -141 -149 122 0
h -141 -150 123 0
h -141 -151 124 0
h -141 -152 125 0
h -141 -153 126 0
h -141 -154 127 0
h -141 -155 128 0
h -141 -156 129 0
h -141 -157 130 0
h -142 -147 121 0
h -142 -148 122 0
h -142 -149 123 0
h -142 -150 124 0
h -142 -151 125 0
h -142 -152 126 0
h -142 -153 127 0
h -142 -154 128 0
h -142 -155 129 0
h -142 -156 130 0
h -142 -157 131 0
h -143 -147 122 0
h -143 -148 123 0
h -143 -149 124 0
h -143 -150 125 0
h -143 -151 126 0
h -143 -152 127 0
h -143 -153 128 0
h -143 -154 129 0
h -143 -155 130 0
h -143 -156 131 0
h -143 -157 132 0
h -144 -147 123 0
h -144 -148 124 0
h -144 -149 125 0
h -144 -150 126 0
h -144 -151 127 0
h -144 -152 128 0
h -144 -153 129 0
h -144 -154 130 0
h -144 -155 131 0
h -144 -156 132 0
h -144 -157 133 0
h -145 -147 124 0
h -145 -148 125 0
h -145 -149 126 0
h -145 -150 127 0
h -145 -151 128 0
h -145 -152 129 0
h -145 -153 130 0
h -145 -154 131 0
h -145 -155 132 0
h -145 -156 133 0
h -145 -157 134 0
h -146 -147 125 0
h -146 -148 126 0
h -146 -149 127 0
h -146 -150 128 0
h -146 -151 129 0
h -146 -152 130 0
h -146 -153 131 0
h -146 -154 132 0
h -146 -155 133 0
h -146 -156 134 0
h -146 -157 135 0
h -164 147 0
h -165 148 0
h -166 149 0
h -167 150 0
h -168 151 0
h -158 147 0
h -159 148 0
h -160 149 0
h -161 150 0
h -162 151 0
h -163 152 0
h -158 -164 148 0
h -158 -165 149 0
h -158 -166 150 0
h -158 -167 151 0
h -158 -168 152 0
h -159 -164 149 0
h -159 -165 150 0
h -159 -166 151 0
h -159 -167 152 0
h -159 -168 153 0
h -160 -164 150 0
h -160 -165 151 0
h -160 -166 152 0
h -160 -167 153 0
h -160 -168 154 0
h -161 -164 151 0
h -161 -165 152 0
h -161 -166 153 0
h -161 -167 154 0
h -161 -168 155 0
h -162 -164 152 0
h -162 -165 153 0
h -162 -166 154 0
h -162 -167 155 0
h -162 -168 156 0
h -163 -164 153 0
h -163 -165 154 0
h -163 -166 155 0
h -163 -167 156 0
h -163 -168 157 0
h -172 164 0
h -173 165 0
h -169 164 0
h -170 165 0
h -171 166 0
h -169 -172 165 0
h -169 -173 166 0
h -170 -172 166 0
h -170 -173 167 0
h -171 -172 167 0
h -171 -173 168 0
h -45 172 0
h -44 172 0
h -44 -45 173 0
h -43 169 0
h -174 169 0
h -175 170 0
h -174 -43 170 0
h -175 -43 171 0
h -42 174 0
h -41 174 0
h -41 -42 175 0
h -179 158 0
h -180 159 0
h -181 160 0
h -176 158 0
h -177 159 0
h -178 160 0
h -176 -179 159 0
h -176 -180 160 0
h -176 -181 161 0
h -177 -179 160 0
h -177 -180 161 0
h -177 -181 162 0
h -178 -179 161 0
h -178 -180 162 0
h -178 -181 163 0
h -40 179 0
h -182 179 0
h -183 180 0
h -182 -40 180 0
h -183 -40 181 0
h -39 182 0
h -38 182 0
h -38 -39 183 0
h -37 176 0
h -184 176 0
h -185 177 0
h -184 -37 177 0
h -185 -37 178 0
h -36 184 0
h -35 184 0
h -35 -36 185 0
h -192 136 0
h -193 137 0
h -194 138 0
h -195 139 0
h -196 140 0
h -186 136 0
h -187 137 0
h -188 138 0
h -189 139 0
h -190 140 0
h -191 141 0
h -186 -192 137 0
h -186 -193 138 0
h -186 -194 139 0
h -186 -195 140 0
h -186 -196 141 0
h -187 -192 138 0
h -187 -193 139 0
h -187 -194 140 0
h -187 -195 141 0
h -187 -196 142 0
h -188 -192 139 0
h -188 -193 140 0
h -188 -194 141 0
h -188 -195 142 0
h -188 -196 143 0
h -189 -192 140 0
h -189 -193 141 0
h -189 -194 142 0
h -189 -195 143 0
h -189 -196 144 0
h -190 -192 141 0
h -190 -193 142 0
h -190 -194 143 0
h -190 -195 144 0
h -190 -196 145 0
h -191 -192 142 0
h -191 -193 143 0
h -191 -194 144 0
h -191 -195 145 0
h -191 -196 146 0
h -200 192 0
h -201 193 0
h -197 192 0
h -198 193 0
h -199 194 0
h -197 -200 193 0
h -197 -201 194 0
h -198 -200 194 0
h -198 -201 195 0
h -199 -200 195 0
h -199 -201 196 0
h -34 200 0
h -33 200 0
h -33 -34 201 0
h -32 197 0
h -202 197 0
h -203 198 0
h -202 -32 198 0
h -203 -32 199 0
h -31 202 0
h -30 202 0
h -30 -31 203 0
h -207 186 0
h -208 187 0
h -209 188 0
h -204 186 0
h -205 187 0
h -206 188 0
h -204 -207 187 0
h -204 -208 188 0
h -204 -209 189 0
h -205 -207 188 0
h -205 -208 189 0
h -205 -209 190 0
h -206 -207 189 0
h -206 -208 190 0
h -206 -209 191 0
h -29 207 0
h -210 207 0
h -211 208 0
h -210 -29 208 0
h -211 -29 209 0
h -28 210 0
h -27 210 0
h -27 -28 211 0
h -26 204 0
h -212 204 0
h -213 205 0
h -212 -26 205 0
h -213 -26 206 0
h -25 212 0
h -24 212 0
h -24 -25 213 0
h -226 91 0
h -227 92 0
h -228 93 0
h -229 94 0
h -230 95 0
h -231 96 0
h -232 97 0
h -233 98 0
h -234 99 0
h -235 100 0
h -236 101 0
h -214 91 0
h -215 92 0
h -216 93 0
h -217 94 0
h -218 95 0
h -219 96 0
h -220 97 0
h -221 98 0
h -222 99 0
h -223 100 0
h -224 101 0
h -225 102 0
h -214 -226 92 0
h -214 -227 93 0
h -214 -228 94 0
h -214 -229 95 0
h -214 -230 96 0
h -214 -231 97 0
h -214 -232 98 0
h -214 -233 99 0
h -214 -234 100 0
h -214 -235 101 0
h -214 -236 102 0
h -215 -226 93 0
h -215 -227 94 0
h -215 -228 95 0
h -215 -229 96 0
h -215 -230 97 0
h -215 -231 98 0
h -215 -232 99 0
h -215 -233 100 0
h -215 -234 101 0
h -215 -235 102 0
h -215 -236 103 0
h -216 -226 94 0
h -216 -227 95 0
h -216 -228 96 0
h -216 -229 97 0
h -216 -230 98 0
h -216 -231 99 0
h -216 -232 100 0
h -216 -233 101 0
h -216 -234 102 0
h -216 -235 103 0
h -216 -236 104 0
h -217 -226 95 0
h -217 -227 96 0
h -217 -228 97 0
h -217 -229 98 0
h -217 -230 99 0
h -217 -231 100 0
h -217 -232 101 0
h -217 -233 102 0
h -217 -234 103 0
h -217 -235 104 0
h -217 -236 105 0
h -218 -226 96 0
h -218 -227 97 0
h -218 -228 98 0
h -218 -229 99 0
h -218 -230 100 0
h -218 -231 101 0
h -218 -232 102 0
h -218 -233 103 0
h -218 -234 104 0
h -218 -235 105 0
h -218 -236 106 0
h -219 -226 97 0
h -219 -227 98 0
h -219 -228 99 0
h -219 -229 100 0
h -219 -230 101 0
h -219 -231 102 0
h -219 -232 103 0
h -219 -233 104 0
h -219 -234 105 0
h -219 -235 106 0
h -219 -236 107 0
h -220 -226 98 0
h -220 -227 99 0
h -220 -228 100 0
h -220 -229 101 0
h -220 -230 102 0
h -220 -231 103 0
h -220 -232 104 0
h -220 -233 105 0
h -220 -234 106 0
h -220 -235 107 0
h -220 -236 108 0
h -221 -226 99 0
h -221 -227 100 0
h -221 -228 101 0
h -221 -229 102 0
h -221 -230 103 0
h -221 -231 104 0
h -221 -232 105 0
h -221 -233 106 0
h -221 -234 107 0
h -221 -235 108 0
h -221 -236 109 0
h -222 -226 100 0
h -222 -227 101 0
h -222 -228 102 0
h -222 -229 103 0
h -222 -230 104 0
h -222 -231 105 0
h -222 -232 106 0
h -222 -233 107 0
h -222 -234 108 0
h -222 -235 109 0
h -222 -236 110 0
h -223 -226 101 0
h -223 -227 102 0
h -223 -228 103 0
h -223 -229 104 0
h -223 -230 105 0
h -223 -231 106 0
h -223 -232 107 0
h -223 -233 108 0
h -223 -234 109 0
h -223 -235 110 0
h -223 -236 111 0
h -224 -226 102 0
h -224 -227 103 0
h -224 -228 104 0
h -224 -229 105 0
h -224 -230 106 0
h -224 -231 107 0
h -224 -232 108 0
h -224 -233 109 0
h -224 -234 110 0
h -224 -235 111 0
h -224 -236 112 0
h -225 -226 103 0
h -225 -227 104 0
h -225 -228 105 0
h -225 -229 106 0
h -225 -230 107 0
h -225 -231 108 0
h -225 -232 109 0
h -225 -233 110 0
h -225 -234 111 0
h -225 -235 112 0
h -225 -236 113 0
h -243 226 0
h -244 227 0
h -245 228 0
h -246 229 0
h -247 230 0
h -237 226 0
h -238 227 0
h -239 228 0
h -240 229 0
h -241 230 0
h -242 231 0
h -237 -243 227 0
h -237 -244 228 0
h -237 -245 229 0
h -237 -246 230 0
h -237 -247 231 0
h -238 -243 228 0
h -238 -244 229 0
h -238 -245 230 0
h -238 -246 231 0
h -238 -247 232 0
h -239 -243 229 0
h -239 -244 230 0
h -239 -245 231 0
h -239 -246 232 0
h -239 -247 233 0
h -240 -243 230 0
h -240 -244 231 0
h -240 -245 232 0
h -240 -246 233 0
h -240 -247 234 0
h -241 -243 231 0
h -241 -244 232 0
h -241 -245 233 0
h -241 -246 234 0
h -241 -247 235 0
h -242 -243 232 0
h -242 -244 233 0
h -242 -245 234 0
h -242 -246 235 0
h -242 -247 236 0
h -251 243 0
h -252 244 0
h -248 243 0
h -249 244 0
h -250 245 0
h -248 -251 244 0
h -248 -252 245 0
h -249 -251 245 0
h -249 -252 246 0
h -250 -251 246 0
h -250 -252 247 0
h -23 251 0
h -22 251 0
h -22 -23 252 0
h -21 248 0
h -253 248 0
h -254 249 0
h -253 -21 249 0
h -254 -21 250 0
h -20 253 0
h -19 253 0
h -19 -20 254 0
h -258 237 0
h -259 238 0
h -260 239 0
h -255 237 0
h -256 238 0
h -257 239 0
h -255 -258 238 0
h -255 -259 239 0
h -255 -260 240 0
h -256 -258 239 0
h -256 -259 240 0
h -256 -260 241 0
h -257 -258 240 0
h -257 -259 241 0
h -257 -260 242 0
h -18 258 0
h -261 258 0
h -262 259 0
h -261 -18 259 0
h -262 -18 260 0
h -17 261 0
h -16 261 0
h -16 -17 262 0
h -15 255 0
h -263 255 0
h -264 256 0
h -263 -15 256 0
h -264 -15 257 0
h -14 263 0
h -13 263 0
h -13 -14 264 0
h -271 214 0
h -272 215 0
h -273 216 0
h -274 217 0
h -275 218 0
h -276 219 0
h -265 214 0
h -266 215 0
h -267 216 0
h -268 217 0
h -269 218 0
h -270 219 0
h -265 -271 215 0
h -265 -272 216 0
h -265 -273 217 0
h -265 -274 218 0
h -265 -275 219 0
h -265 -276 220 0
h -266 -271 216 0
h -266 -272 217 0
h -266 -273 218 0
h -266 -274 219 0
h -266 -275 220 0
h -266 -276 221 0
h -267 -271 217 0
h -267 -272 218 0
h -267 -273 219 0
h -267 -274 220 0
h -267 -275 221 0
h -267 -276 222 0
h -268 -271 218 0
h -268 -272 219 0
h -268 -273 220 0
h -268 -274 221 0
h -268 -275 222 0
h -268 -276 223 0
h -269 -271 219 0
h -269 -272 220 0
h -269 -273 221 0
h -269 -274 222 0
h -269 -275 223 0
h -269 -276 224 0
h -270 -271 220 0
h -270 -272 221 0
h -270 -273 222 0
h -270 -274 223 0
h -270 -275 224 0
h -270 -276 225 0
h -280 271 0
h -281 272 0
h -282 273 0
h -277 271 0
h -278 272 0
h -279 273 0
h -277 -280 272 0
h -277 -281 273 0
h -277 -282 274 0
h -278 -280 273 0
h -278 -281 274 0
h -278 -282 275 0
h -279 -280 274 0
h -279 -281 275 0
h -279 -282 276 0
h -12 280 0
h -283 280 0
h -284 281 0
h -283 -12 281 0
h -284 -12 282 0
h -11 283 0
h -10 283 0
h -10 -11 284 0
h -9 277 0
h -285 277 0
h -286 278 0
h -285 -9 278 0
h -286 -9 279 0
h -8 285 0
h -7 285 0
h -7 -8 286 0
h -290 265 0
h -291 266 0
h -292 267 0
h -287 265 0
h -288 266 0
h -289 267 0
h -287 -290 266 0
h -287 -291 267 0
h -287 -292 268 0
h -288 -290 267 0
h -288 -291 268 0
h -288 -292 269 0
h -289 -290 268 0
h -289 -291 269 0
h -289 -292 270 0
h -6 290 0
h -293 290 0
h -294 291 0
h -293 -6 291 0
h -294 -6 292 0
h -5 293 0
h -4 293 0
h -4 -5 294 0
h -3 287 0
h -295 287 0
h -296 288 0
h -295 -3 288 0
h -296 -3 289 0
h -2 295 0
h -1 295 0
h -1 -2 296 0
h -62 0
